33D32945 STP File, STP Format Version 1.0

SECTION Comments
Name "shell_n15_d2_s38"
Problem "Euclidean Steiner Tree Problem"
Remark "Generated with STPGenerator. 2 dimensions."
END

SECTION Graph
Nodes 15
END

SECTION Coordinates
DD 0 0.2895171754 -0.9571728189
DD 1 -0.0646200244 -0.9979099421
DD 2 -0.0895036538 0.9959864939
DD 3 0.5106103938 -0.8598122037
DD 4 0.2297427991 -0.9732513788
DD 5 -0.8443128768 0.5358505072
DD 6 0.9401553439 -0.3407461363
DD 7 0.8489544430 -0.5284660384
DD 8 -0.9955127570 -0.0946274307
DD 9 0.9534536058 0.3015397514
DD 10 -0.9980072743 0.0630989736
DD 11 -0.3470027027 0.9378641289
DD 12 0.9124216761 -0.4092513714
DD 13 -0.9974331472 0.0716038887
DD 14 -0.0425324315 0.9990950867
END
